8525
43, 33, 51, 12, 11, 13, 52, 14, 47, 26, 27, 28, 25, 4, 6, 5, 24, 48, 46, 44, 16, 50, 29, 20, 23, 30, 7, 2, 42, 21, 31, 18, 17, 3, 41, 9, 10, 8, 19, 45, 32, 49, 22, 1, 35, 36, 34, 39, 37, 40, 38, 15
